c Reduced graph for DSJR500.1_10 generated by Cyril Grelier
p edge 309 2324
e 1 9
e 1 10
e 1 23
e 1 27
e 1 30
e 1 63
e 1 74
e 1 96
e 1 97
e 1 102
e 1 115
e 1 128
e 1 129
e 1 138
e 1 162
e 1 176
e 1 182
e 1 227
e 1 230
e 1 248
e 1 268
e 1 276
e 1 277
e 2 8
e 2 29
e 2 48
e 2 94
e 2 110
e 2 122
e 2 157
e 2 158
e 2 163
e 2 173
e 2 201
e 2 208
e 2 228
e 2 233
e 2 258
e 2 259
e 2 265
e 2 266
e 2 270
e 3 7
e 3 38
e 3 55
e 3 59
e 3 62
e 3 66
e 3 95
e 3 108
e 3 111
e 3 123
e 3 171
e 3 185
e 3 191
e 3 192
e 3 206
e 3 229
e 3 237
e 3 244
e 3 279
e 4 22
e 4 33
e 4 42
e 4 67
e 4 83
e 4 109
e 4 114
e 4 141
e 4 161
e 4 165
e 4 166
e 4 184
e 4 199
e 4 236
e 4 243
e 4 288
e 4 300
e 4 305
e 5 24
e 5 68
e 5 91
e 5 93
e 5 164
e 5 189
e 5 207
e 5 226
e 5 231
e 5 254
e 5 256
e 5 257
e 5 263
e 5 267
e 5 272
e 5 283
e 5 289
e 5 298
e 6 22
e 6 29
e 6 67
e 6 69
e 6 109
e 6 150
e 6 161
e 6 165
e 6 196
e 6 209
e 6 210
e 6 232
e 6 243
e 6 258
e 6 265
e 6 273
e 6 299
e 6 300
e 7 34
e 7 38
e 7 55
e 7 66
e 7 95
e 7 99
e 7 105
e 7 111
e 7 123
e 7 124
e 7 142
e 7 171
e 7 192
e 7 218
e 7 240
e 7 279
e 8 29
e 8 48
e 8 94
e 8 122
e 8 157
e 8 163
e 8 173
e 8 201
e 8 208
e 8 233
e 8 258
e 8 259
e 8 265
e 8 266
e 8 270
e 8 299
e 9 10
e 9 23
e 9 27
e 9 30
e 9 63
e 9 74
e 9 102
e 9 153
e 9 176
e 9 182
e 9 230
e 9 248
e 9 268
e 9 276
e 9 282
e 10 23
e 10 30
e 10 63
e 10 74
e 10 102
e 10 153
e 10 176
e 10 182
e 10 230
e 10 248
e 10 268
e 10 276
e 10 282
e 11 13
e 11 28
e 11 36
e 11 52
e 11 53
e 11 72
e 11 194
e 11 221
e 11 234
e 11 252
e 11 255
e 11 256
e 11 263
e 11 272
e 11 292
e 12 37
e 12 47
e 12 113
e 12 127
e 12 136
e 12 140
e 12 151
e 12 169
e 12 172
e 12 195
e 12 245
e 12 261
e 12 285
e 12 290
e 13 28
e 13 36
e 13 52
e 13 194
e 13 234
e 13 252
e 13 255
e 13 256
e 13 263
e 13 272
e 13 289
e 13 292
e 14 80
e 14 81
e 14 98
e 14 130
e 14 143
e 14 152
e 14 187
e 14 188
e 14 202
e 14 246
e 14 295
e 15 20
e 15 32
e 15 71
e 15 104
e 15 126
e 15 135
e 15 212
e 15 239
e 15 247
e 15 262
e 15 301
e 16 17
e 16 110
e 16 157
e 16 158
e 16 173
e 16 201
e 16 228
e 16 233
e 16 259
e 16 266
e 17 60
e 17 61
e 17 110
e 17 118
e 17 131
e 17 216
e 17 228
e 17 296
e 17 309
e 18 58
e 18 76
e 18 84
e 18 87
e 18 115
e 18 116
e 18 139
e 18 162
e 18 277
e 19 34
e 19 39
e 19 47
e 19 99
e 19 125
e 19 169
e 19 249
e 19 293
e 20 71
e 20 104
e 20 135
e 20 280
e 20 301
e 21 88
e 21 134
e 21 196
e 21 288
e 22 33
e 22 67
e 22 69
e 22 83
e 22 109
e 22 134
e 22 150
e 22 161
e 22 165
e 22 166
e 22 184
e 22 196
e 22 199
e 22 209
e 22 210
e 22 236
e 22 243
e 22 273
e 22 288
e 22 300
e 23 27
e 23 30
e 23 63
e 23 74
e 23 96
e 23 97
e 23 115
e 23 128
e 23 129
e 23 138
e 23 162
e 23 176
e 23 182
e 23 227
e 23 230
e 23 248
e 23 268
e 23 276
e 23 277
e 24 49
e 24 68
e 24 91
e 24 93
e 24 100
e 24 164
e 24 193
e 24 207
e 24 226
e 24 231
e 24 235
e 24 254
e 24 257
e 24 264
e 24 267
e 24 283
e 24 289
e 24 298
e 24 304
e 25 26
e 25 49
e 25 65
e 25 91
e 25 100
e 25 137
e 25 147
e 25 148
e 25 155
e 25 170
e 25 179
e 25 186
e 25 254
e 25 256
e 25 260
e 25 264
e 25 271
e 25 298
e 25 303
e 25 306
e 26 49
e 26 65
e 26 82
e 26 132
e 26 137
e 26 147
e 26 148
e 26 170
e 26 177
e 26 179
e 26 186
e 26 190
e 26 220
e 26 260
e 26 271
e 26 286
e 26 303
e 26 306
e 27 63
e 27 77
e 27 96
e 27 97
e 27 128
e 27 129
e 27 138
e 27 149
e 27 162
e 27 198
e 27 227
e 27 230
e 27 268
e 27 275
e 27 278
e 27 280
e 28 31
e 28 52
e 28 53
e 28 65
e 28 112
e 28 147
e 28 148
e 28 170
e 28 194
e 28 221
e 28 234
e 28 255
e 28 256
e 28 271
e 28 272
e 28 286
e 28 302
e 29 48
e 29 69
e 29 94
e 29 122
e 29 150
e 29 157
e 29 173
e 29 196
e 29 208
e 29 210
e 29 258
e 29 265
e 29 266
e 29 273
e 29 299
e 30 63
e 30 74
e 30 102
e 30 115
e 30 153
e 30 162
e 30 176
e 30 182
e 30 227
e 30 230
e 30 248
e 30 268
e 30 276
e 30 282
e 31 52
e 31 53
e 31 70
e 31 72
e 31 73
e 31 112
e 31 171
e 31 194
e 31 214
e 31 221
e 31 234
e 31 250
e 31 255
e 31 286
e 31 302
e 32 48
e 32 71
e 32 94
e 32 104
e 32 126
e 32 163
e 32 180
e 32 208
e 32 211
e 32 212
e 32 239
e 32 247
e 32 258
e 32 262
e 32 301
e 33 67
e 33 109
e 33 114
e 33 141
e 33 161
e 33 165
e 33 166
e 33 199
e 33 232
e 33 236
e 33 243
e 33 300
e 33 305
e 34 38
e 34 39
e 34 45
e 34 55
e 34 59
e 34 99
e 34 124
e 34 125
e 34 249
e 34 274
e 34 279
e 34 293
e 35 71
e 35 75
e 35 77
e 35 104
e 35 126
e 35 149
e 35 178
e 35 198
e 35 211
e 35 238
e 35 262
e 35 280
e 35 301
e 35 307
e 36 52
e 36 194
e 36 234
e 36 252
e 36 255
e 36 263
e 36 272
e 36 289
e 36 292
e 37 47
e 37 113
e 37 127
e 37 151
e 37 172
e 37 245
e 37 261
e 37 285
e 37 290
e 38 55
e 38 59
e 38 111
e 38 123
e 38 244
e 38 279
e 39 45
e 39 99
e 39 125
e 39 169
e 39 249
e 39 279
e 39 293
e 40 78
e 40 144
e 40 159
e 40 175
e 40 183
e 40 200
e 40 217
e 40 308
e 41 51
e 41 89
e 41 90
e 41 119
e 41 167
e 41 168
e 41 241
e 42 43
e 42 83
e 42 184
e 42 199
e 42 236
e 42 242
e 43 57
e 43 83
e 43 134
e 43 184
e 43 236
e 43 242
e 44 133
e 44 160
e 44 204
e 44 241
e 44 253
e 44 269
e 45 59
e 45 279
e 46 47
e 46 79
e 46 92
e 46 113
e 46 124
e 46 125
e 46 127
e 46 136
e 46 140
e 46 154
e 46 169
e 46 172
e 46 195
e 46 215
e 46 218
e 46 222
e 46 224
e 46 245
e 46 261
e 46 274
e 46 285
e 46 290
e 46 291
e 46 294
e 47 92
e 47 99
e 47 113
e 47 124
e 47 125
e 47 127
e 47 136
e 47 140
e 47 151
e 47 169
e 47 172
e 47 218
e 47 245
e 47 249
e 47 261
e 47 274
e 47 285
e 47 290
e 47 293
e 48 69
e 48 94
e 48 122
e 48 163
e 48 180
e 48 208
e 48 210
e 48 212
e 48 233
e 48 247
e 48 258
e 48 259
e 48 262
e 48 265
e 48 266
e 48 270
e 48 273
e 48 299
e 49 65
e 49 91
e 49 100
e 49 137
e 49 155
e 49 170
e 49 179
e 49 181
e 49 226
e 49 254
e 49 256
e 49 257
e 49 260
e 49 264
e 49 271
e 49 298
e 49 306
e 50 51
e 50 54
e 50 62
e 50 64
e 50 108
e 50 160
e 50 167
e 50 168
e 50 191
e 50 197
e 50 204
e 50 205
e 50 206
e 50 219
e 50 253
e 50 269
e 50 284
e 50 287
e 50 297
e 51 54
e 51 62
e 51 64
e 51 119
e 51 133
e 51 160
e 51 167
e 51 168
e 51 197
e 51 205
e 51 206
e 51 219
e 51 241
e 51 253
e 51 269
e 51 297
e 52 53
e 52 70
e 52 72
e 52 73
e 52 194
e 52 221
e 52 234
e 52 252
e 52 255
e 52 272
e 52 287
e 52 292
e 53 70
e 53 72
e 53 73
e 53 112
e 53 171
e 53 194
e 53 221
e 53 234
e 53 250
e 53 255
e 53 287
e 53 292
e 53 302
e 54 62
e 54 64
e 54 133
e 54 160
e 54 167
e 54 168
e 54 197
e 54 204
e 54 205
e 54 219
e 54 241
e 54 253
e 54 269
e 54 284
e 54 297
e 55 59
e 55 99
e 55 105
e 55 111
e 55 123
e 55 124
e 55 125
e 55 142
e 55 218
e 55 274
e 55 279
e 56 79
e 56 92
e 56 117
e 56 154
e 56 195
e 56 215
e 56 224
e 56 291
e 57 83
e 57 88
e 57 134
e 57 184
e 57 236
e 57 242
e 57 288
e 58 76
e 58 84
e 58 101
e 58 139
e 58 275
e 58 278
e 59 111
e 59 279
e 60 61
e 60 118
e 60 216
e 60 296
e 61 118
e 61 120
e 61 296
e 62 64
e 62 66
e 62 95
e 62 108
e 62 111
e 62 119
e 62 123
e 62 167
e 62 168
e 62 185
e 62 191
e 62 192
e 62 205
e 62 206
e 62 219
e 62 229
e 62 237
e 62 244
e 62 284
e 62 297
e 63 74
e 63 96
e 63 97
e 63 102
e 63 115
e 63 128
e 63 138
e 63 153
e 63 162
e 63 176
e 63 182
e 63 227
e 63 230
e 63 248
e 63 268
e 63 276
e 63 277
e 63 282
e 64 95
e 64 108
e 64 167
e 64 168
e 64 191
e 64 192
e 64 197
e 64 205
e 64 206
e 64 219
e 64 229
e 64 237
e 64 244
e 64 269
e 64 284
e 64 287
e 64 297
e 65 112
e 65 137
e 65 147
e 65 148
e 65 170
e 65 177
e 65 179
e 65 220
e 65 255
e 65 256
e 65 260
e 65 271
e 65 286
e 65 298
e 65 302
e 65 303
e 65 306
e 66 70
e 66 72
e 66 73
e 66 95
e 66 108
e 66 111
e 66 123
e 66 171
e 66 191
e 66 192
e 66 205
e 66 206
e 66 229
e 66 244
e 66 284
e 66 287
e 66 297
e 67 69
e 67 109
e 67 150
e 67 161
e 67 165
e 67 166
e 67 196
e 67 209
e 67 210
e 67 232
e 67 243
e 67 265
e 67 273
e 67 288
e 67 299
e 67 300
e 68 91
e 68 93
e 68 164
e 68 189
e 68 207
e 68 226
e 68 231
e 68 254
e 68 256
e 68 257
e 68 263
e 68 264
e 68 267
e 68 272
e 68 283
e 68 289
e 68 298
e 69 109
e 69 150
e 69 161
e 69 165
e 69 196
e 69 209
e 69 210
e 69 232
e 69 243
e 69 258
e 69 265
e 69 273
e 69 299
e 69 300
e 70 72
e 70 73
e 70 95
e 70 108
e 70 171
e 70 191
e 70 194
e 70 197
e 70 221
e 70 229
e 70 234
e 70 284
e 70 287
e 70 292
e 70 297
e 71 77
e 71 104
e 71 126
e 71 135
e 71 178
e 71 180
e 71 198
e 71 211
e 71 238
e 71 247
e 71 262
e 71 280
e 71 301
e 71 307
e 72 73
e 72 108
e 72 191
e 72 194
e 72 197
e 72 221
e 72 234
e 72 284
e 72 287
e 72 292
e 72 297
e 73 95
e 73 108
e 73 171
e 73 191
e 73 192
e 73 205
e 73 221
e 73 229
e 73 284
e 73 287
e 73 297
e 74 102
e 74 153
e 74 176
e 74 182
e 74 230
e 74 248
e 74 268
e 74 276
e 74 282
e 75 114
e 75 141
e 75 146
e 75 149
e 75 165
e 75 178
e 75 198
e 75 211
e 75 225
e 75 232
e 75 238
e 75 300
e 75 305
e 75 307
e 76 84
e 76 97
e 76 101
e 76 116
e 76 128
e 76 129
e 76 139
e 76 162
e 76 227
e 76 275
e 76 277
e 76 278
e 77 96
e 77 138
e 77 149
e 77 178
e 77 198
e 77 211
e 77 238
e 77 276
e 77 280
e 77 301
e 77 307
e 78 81
e 78 98
e 78 130
e 78 159
e 78 183
e 78 200
e 78 213
e 78 217
e 78 246
e 78 251
e 78 281
e 78 308
e 79 92
e 79 117
e 79 154
e 79 156
e 79 195
e 79 215
e 79 222
e 79 224
e 79 291
e 79 294
e 80 81
e 80 98
e 80 130
e 80 143
e 80 152
e 80 187
e 80 188
e 80 202
e 80 246
e 80 295
e 81 98
e 81 130
e 81 143
e 81 152
e 81 187
e 81 213
e 81 246
e 81 295
e 82 117
e 82 132
e 82 137
e 82 147
e 82 177
e 82 186
e 82 190
e 82 220
e 82 303
e 82 306
e 83 166
e 83 184
e 83 199
e 83 236
e 83 242
e 83 288
e 84 87
e 84 101
e 84 116
e 84 139
e 84 162
e 84 227
e 84 277
e 84 278
e 85 100
e 85 107
e 85 121
e 85 155
e 85 181
e 85 203
e 85 226
e 85 235
e 85 254
e 85 257
e 85 264
e 86 87
e 86 103
e 86 116
e 86 145
e 86 223
e 86 231
e 87 115
e 87 116
e 87 277
e 88 134
e 88 242
e 88 288
e 89 90
e 89 133
e 89 241
e 90 133
e 90 241
e 91 93
e 91 100
e 91 164
e 91 193
e 91 207
e 91 226
e 91 231
e 91 254
e 91 256
e 91 257
e 91 260
e 91 263
e 91 264
e 91 267
e 91 289
e 91 298
e 91 304
e 92 113
e 92 127
e 92 136
e 92 140
e 92 151
e 92 154
e 92 172
e 92 195
e 92 215
e 92 222
e 92 224
e 92 245
e 92 261
e 92 285
e 92 290
e 92 291
e 92 294
e 93 103
e 93 145
e 93 164
e 93 193
e 93 207
e 93 223
e 93 226
e 93 231
e 93 235
e 93 254
e 93 257
e 93 264
e 93 267
e 93 283
e 93 289
e 93 298
e 93 304
e 94 110
e 94 122
e 94 163
e 94 173
e 94 174
e 94 201
e 94 208
e 94 228
e 94 233
e 94 258
e 94 259
e 94 265
e 94 266
e 94 270
e 94 299
e 95 108
e 95 111
e 95 123
e 95 171
e 95 191
e 95 192
e 95 205
e 95 206
e 95 229
e 95 244
e 95 284
e 95 297
e 96 97
e 96 101
e 96 128
e 96 129
e 96 138
e 96 139
e 96 149
e 96 162
e 96 178
e 96 198
e 96 227
e 96 275
e 96 278
e 97 101
e 97 128
e 97 129
e 97 138
e 97 139
e 97 162
e 97 227
e 97 230
e 97 268
e 97 275
e 97 278
e 98 130
e 98 143
e 98 152
e 98 183
e 98 200
e 98 213
e 98 217
e 98 246
e 98 251
e 98 281
e 98 295
e 98 308
e 99 124
e 99 125
e 99 136
e 99 142
e 99 169
e 99 218
e 99 249
e 99 274
e 99 279
e 99 293
e 100 121
e 100 155
e 100 179
e 100 181
e 100 207
e 100 226
e 100 254
e 100 257
e 100 260
e 100 264
e 100 298
e 101 128
e 101 129
e 101 138
e 101 139
e 101 162
e 101 227
e 101 275
e 101 277
e 101 278
e 102 115
e 102 153
e 102 176
e 102 189
e 102 230
e 102 248
e 102 268
e 102 282
e 103 145
e 103 164
e 103 193
e 103 203
e 103 207
e 103 223
e 103 226
e 103 231
e 103 235
e 103 267
e 103 304
e 104 126
e 104 135
e 104 212
e 104 239
e 104 247
e 104 262
e 104 280
e 104 301
e 105 124
e 105 142
e 105 154
e 105 156
e 105 171
e 105 214
e 105 218
e 105 222
e 105 240
e 105 250
e 105 294
e 106 110
e 106 131
e 106 144
e 106 163
e 106 174
e 106 175
e 106 212
e 106 228
e 106 239
e 106 259
e 106 270
e 106 309
e 107 121
e 107 155
e 107 181
e 107 203
e 107 235
e 107 264
e 108 111
e 108 123
e 108 167
e 108 168
e 108 171
e 108 191
e 108 192
e 108 197
e 108 205
e 108 206
e 108 219
e 108 229
e 108 244
e 108 284
e 108 287
e 108 297
e 109 114
e 109 141
e 109 150
e 109 161
e 109 165
e 109 166
e 109 196
e 109 209
e 109 210
e 109 232
e 109 243
e 109 273
e 109 299
e 109 300
e 109 305
e 110 118
e 110 122
e 110 131
e 110 158
e 110 173
e 110 174
e 110 175
e 110 216
e 110 228
e 110 233
e 110 259
e 110 266
e 110 270
e 110 296
e 110 309
e 111 123
e 111 171
e 111 185
e 111 191
e 111 192
e 111 206
e 111 229
e 111 237
e 111 244
e 111 279
e 112 132
e 112 137
e 112 147
e 112 148
e 112 170
e 112 177
e 112 214
e 112 220
e 112 250
e 112 255
e 112 271
e 112 286
e 112 302
e 112 303
e 113 127
e 113 136
e 113 140
e 113 151
e 113 172
e 113 195
e 113 215
e 113 245
e 113 261
e 113 285
e 113 290
e 113 291
e 114 141
e 114 146
e 114 161
e 114 165
e 114 166
e 114 225
e 114 232
e 114 300
e 114 305
e 115 116
e 115 162
e 115 227
e 115 248
e 115 277
e 116 139
e 116 162
e 116 227
e 116 277
e 117 132
e 117 154
e 117 156
e 117 177
e 117 190
e 117 220
e 117 224
e 118 120
e 118 131
e 118 216
e 118 228
e 118 296
e 118 309
e 119 167
e 119 168
e 119 185
e 119 206
e 119 237
e 119 244
e 120 131
e 120 175
e 120 200
e 120 216
e 120 296
e 120 309
e 121 155
e 121 179
e 121 181
e 121 254
e 121 264
e 122 157
e 122 158
e 122 163
e 122 173
e 122 201
e 122 208
e 122 228
e 122 233
e 122 258
e 122 259
e 122 265
e 122 266
e 122 270
e 122 299
e 123 171
e 123 185
e 123 191
e 123 192
e 123 205
e 123 206
e 123 229
e 123 237
e 123 244
e 123 297
e 124 125
e 124 136
e 124 142
e 124 169
e 124 218
e 124 222
e 124 249
e 124 274
e 124 279
e 124 293
e 124 294
e 125 136
e 125 142
e 125 169
e 125 218
e 125 249
e 125 274
e 125 279
e 125 285
e 125 293
e 126 135
e 126 178
e 126 180
e 126 211
e 126 212
e 126 238
e 126 239
e 126 247
e 126 262
e 126 301
e 126 307
e 127 136
e 127 140
e 127 151
e 127 169
e 127 172
e 127 195
e 127 245
e 127 261
e 127 285
e 127 290
e 128 129
e 128 138
e 128 139
e 128 162
e 128 227
e 128 275
e 128 277
e 128 278
e 129 138
e 129 139
e 129 149
e 129 162
e 129 198
e 129 227
e 129 275
e 129 278
e 130 143
e 130 152
e 130 187
e 130 188
e 130 202
e 130 213
e 130 246
e 130 251
e 130 281
e 130 295
e 131 144
e 131 174
e 131 175
e 131 216
e 131 228
e 131 259
e 131 270
e 131 296
e 131 309
e 132 147
e 132 148
e 132 156
e 132 177
e 132 214
e 132 220
e 132 250
e 132 286
e 132 302
e 132 303
e 133 160
e 133 204
e 133 241
e 133 253
e 133 269
e 134 236
e 134 242
e 134 288
e 135 212
e 135 280
e 135 301
e 136 140
e 136 151
e 136 169
e 136 172
e 136 195
e 136 218
e 136 245
e 136 249
e 136 261
e 136 274
e 136 285
e 136 290
e 136 291
e 136 293
e 137 147
e 137 148
e 137 170
e 137 177
e 137 179
e 137 186
e 137 220
e 137 256
e 137 260
e 137 271
e 137 286
e 137 303
e 137 306
e 138 139
e 138 149
e 138 178
e 138 198
e 138 227
e 138 238
e 138 275
e 138 278
e 139 162
e 139 227
e 139 275
e 139 277
e 139 278
e 140 151
e 140 172
e 140 195
e 140 215
e 140 245
e 140 261
e 140 285
e 140 290
e 140 291
e 141 146
e 141 161
e 141 165
e 141 166
e 141 225
e 141 232
e 141 300
e 141 305
e 142 156
e 142 171
e 142 218
e 142 222
e 142 240
e 142 274
e 142 294
e 143 152
e 143 187
e 143 188
e 143 202
e 143 213
e 143 246
e 143 295
e 144 159
e 144 174
e 144 175
e 144 183
e 144 200
e 144 239
e 144 308
e 144 309
e 145 164
e 145 193
e 145 203
e 145 223
e 145 231
e 145 235
e 145 304
e 146 225
e 146 275
e 146 300
e 146 305
e 147 148
e 147 170
e 147 177
e 147 214
e 147 220
e 147 250
e 147 255
e 147 256
e 147 271
e 147 286
e 147 302
e 147 303
e 148 170
e 148 177
e 148 214
e 148 220
e 148 250
e 148 255
e 148 256
e 148 271
e 148 286
e 148 302
e 148 303
e 149 178
e 149 198
e 149 211
e 149 225
e 149 232
e 149 238
e 149 275
e 149 305
e 149 307
e 150 161
e 150 196
e 150 209
e 150 210
e 150 243
e 150 265
e 150 273
e 150 288
e 150 299
e 151 172
e 151 195
e 151 215
e 151 245
e 151 261
e 151 285
e 151 290
e 152 187
e 152 188
e 152 202
e 152 246
e 152 251
e 152 281
e 152 295
e 153 176
e 153 182
e 153 230
e 153 268
e 153 276
e 153 282
e 154 156
e 154 222
e 154 224
e 154 240
e 154 291
e 154 294
e 155 179
e 155 181
e 155 254
e 155 260
e 155 264
e 155 306
e 156 214
e 156 218
e 156 222
e 156 224
e 156 240
e 156 294
e 157 158
e 157 173
e 157 201
e 157 233
e 157 265
e 157 266
e 158 173
e 158 201
e 158 228
e 158 233
e 158 259
e 158 266
e 159 175
e 159 183
e 159 200
e 159 213
e 159 217
e 159 281
e 159 308
e 160 197
e 160 204
e 160 219
e 160 253
e 160 269
e 161 165
e 161 166
e 161 199
e 161 209
e 161 210
e 161 232
e 161 236
e 161 243
e 161 273
e 161 288
e 161 300
e 161 305
e 162 227
e 162 230
e 162 248
e 162 277
e 162 278
e 163 173
e 163 174
e 163 180
e 163 208
e 163 212
e 163 233
e 163 239
e 163 247
e 163 258
e 163 259
e 163 265
e 163 266
e 163 270
e 164 193
e 164 207
e 164 223
e 164 226
e 164 231
e 164 235
e 164 254
e 164 257
e 164 264
e 164 267
e 164 283
e 164 298
e 164 304
e 165 166
e 165 199
e 165 209
e 165 225
e 165 232
e 165 243
e 165 300
e 165 305
e 166 184
e 166 199
e 166 232
e 166 236
e 166 243
e 166 288
e 166 300
e 166 305
e 167 168
e 167 185
e 167 205
e 167 206
e 167 219
e 167 237
e 167 241
e 167 244
e 167 269
e 167 297
e 168 185
e 168 205
e 168 206
e 168 219
e 168 237
e 168 241
e 168 269
e 168 297
e 169 218
e 169 245
e 169 249
e 169 274
e 169 285
e 169 290
e 169 293
e 170 255
e 170 256
e 170 260
e 170 271
e 170 286
e 170 298
e 170 302
e 170 303
e 171 191
e 171 192
e 171 229
e 171 240
e 172 195
e 172 215
e 172 245
e 172 261
e 172 285
e 172 290
e 172 291
e 173 201
e 173 228
e 173 233
e 173 259
e 173 266
e 173 270
e 174 175
e 174 216
e 174 228
e 174 233
e 174 239
e 174 259
e 174 266
e 174 270
e 174 296
e 174 309
e 175 183
e 175 200
e 175 216
e 175 239
e 175 296
e 175 308
e 175 309
e 176 182
e 176 230
e 176 248
e 176 268
e 176 276
e 176 282
e 177 186
e 177 190
e 177 220
e 177 286
e 177 303
e 177 306
e 178 198
e 178 211
e 178 238
e 178 262
e 178 280
e 178 301
e 178 307
e 179 181
e 179 186
e 179 254
e 179 260
e 179 298
e 179 306
e 180 208
e 180 211
e 180 212
e 180 247
e 180 258
e 180 262
e 180 299
e 180 301
e 180 307
e 181 203
e 181 226
e 181 235
e 181 254
e 181 257
e 181 260
e 181 264
e 182 230
e 182 268
e 182 276
e 182 282
e 183 200
e 183 213
e 183 217
e 183 251
e 183 281
e 183 308
e 184 199
e 184 236
e 184 242
e 184 288
e 185 192
e 185 206
e 185 237
e 185 244
e 186 190
e 186 220
e 186 260
e 186 303
e 186 306
e 187 188
e 187 202
e 187 246
e 187 295
e 188 202
e 188 246
e 188 295
e 189 252
e 189 263
e 189 267
e 189 272
e 189 283
e 189 289
e 190 220
e 190 303
e 190 306
e 191 192
e 191 205
e 191 206
e 191 219
e 191 229
e 191 244
e 191 284
e 191 287
e 191 297
e 192 205
e 192 206
e 192 229
e 192 237
e 192 244
e 192 284
e 192 297
e 193 203
e 193 207
e 193 223
e 193 226
e 193 231
e 193 235
e 193 254
e 193 257
e 193 264
e 193 267
e 193 304
e 194 221
e 194 234
e 194 252
e 194 255
e 194 271
e 194 272
e 194 292
e 194 302
e 195 215
e 195 245
e 195 261
e 195 285
e 195 290
e 195 291
e 196 209
e 196 210
e 196 243
e 196 258
e 196 265
e 196 273
e 196 288
e 196 299
e 197 204
e 197 205
e 197 219
e 197 253
e 197 269
e 197 284
e 197 287
e 197 297
e 198 211
e 198 225
e 198 238
e 198 275
e 198 280
e 198 307
e 199 236
e 199 242
e 199 243
e 199 288
e 200 213
e 200 217
e 200 281
e 200 308
e 201 228
e 201 233
e 201 259
e 201 266
e 202 246
e 202 251
e 202 281
e 202 295
e 203 223
e 203 226
e 203 235
e 203 257
e 203 304
e 204 219
e 204 253
e 204 269
e 205 206
e 205 219
e 205 229
e 205 237
e 205 244
e 205 269
e 205 284
e 205 287
e 205 297
e 206 229
e 206 237
e 206 244
e 206 297
e 207 226
e 207 231
e 207 254
e 207 257
e 207 263
e 207 264
e 207 267
e 207 283
e 207 289
e 207 298
e 207 304
e 208 210
e 208 212
e 208 233
e 208 247
e 208 258
e 208 259
e 208 262
e 208 265
e 208 266
e 208 270
e 208 299
e 209 210
e 209 232
e 209 243
e 209 258
e 209 265
e 209 273
e 209 299
e 209 300
e 209 305
e 210 243
e 210 258
e 210 265
e 210 273
e 210 299
e 211 232
e 211 238
e 211 247
e 211 262
e 211 280
e 211 301
e 211 307
e 212 239
e 212 247
e 212 262
e 212 270
e 212 301
e 213 217
e 213 246
e 213 251
e 213 281
e 213 295
e 213 308
e 214 220
e 214 240
e 214 250
e 214 255
e 214 286
e 214 302
e 215 224
e 215 245
e 215 261
e 215 291
e 216 228
e 216 296
e 216 309
e 217 251
e 217 281
e 217 308
e 218 222
e 218 240
e 218 249
e 218 274
e 218 285
e 218 293
e 218 294
e 219 253
e 219 269
e 219 284
e 219 287
e 219 297
e 220 286
e 220 303
e 220 306
e 221 234
e 221 255
e 221 284
e 221 287
e 221 292
e 221 302
e 222 224
e 222 240
e 222 274
e 222 294
e 223 231
e 223 235
e 223 267
e 223 304
e 224 291
e 224 294
e 225 232
e 225 300
e 225 305
e 226 231
e 226 235
e 226 254
e 226 257
e 226 264
e 226 267
e 226 298
e 226 304
e 227 230
e 227 248
e 227 275
e 227 277
e 227 278
e 228 233
e 228 259
e 228 266
e 228 270
e 228 296
e 228 309
e 229 237
e 229 244
e 229 284
e 229 287
e 229 297
e 230 248
e 230 268
e 230 276
e 230 282
e 231 235
e 231 257
e 231 267
e 231 283
e 231 304
e 232 243
e 232 300
e 232 305
e 233 259
e 233 266
e 233 270
e 234 252
e 234 255
e 234 272
e 234 292
e 234 302
e 235 257
e 235 264
e 235 304
e 236 242
e 236 243
e 236 288
e 237 244
e 238 262
e 238 280
e 238 301
e 238 307
e 239 247
e 240 250
e 240 294
e 241 269
e 242 288
e 243 265
e 243 273
e 243 288
e 243 299
e 243 300
e 244 297
e 245 261
e 245 285
e 245 290
e 245 291
e 246 251
e 246 281
e 246 295
e 247 258
e 247 262
e 247 301
e 248 268
e 248 277
e 249 274
e 249 279
e 249 293
e 250 255
e 250 286
e 250 302
e 251 281
e 251 308
e 252 263
e 252 272
e 252 289
e 252 292
e 253 269
e 253 284
e 254 257
e 254 260
e 254 264
e 254 298
e 254 304
e 255 256
e 255 271
e 255 286
e 255 292
e 255 302
e 256 260
e 256 263
e 256 271
e 256 272
e 256 286
e 256 289
e 256 298
e 257 264
e 257 267
e 257 298
e 257 304
e 258 262
e 258 265
e 258 273
e 258 299
e 259 266
e 259 270
e 260 264
e 260 271
e 260 298
e 260 306
e 261 285
e 261 290
e 261 291
e 262 301
e 262 307
e 263 272
e 263 283
e 263 289
e 264 298
e 264 304
e 265 273
e 265 299
e 266 270
e 267 283
e 267 289
e 267 304
e 268 276
e 268 282
e 269 284
e 269 297
e 271 286
e 271 302
e 271 303
e 272 283
e 272 289
e 272 292
e 273 299
e 274 285
e 274 293
e 274 294
e 275 278
e 276 280
e 276 282
e 279 293
e 280 301
e 280 307
e 281 308
e 283 289
e 284 287
e 284 297
e 285 290
e 285 293
e 286 302
e 286 303
e 287 292
e 287 297
e 289 298
e 291 294
e 296 309
e 300 305
e 301 307
e 303 306
